computational_data/real_data/solutions/wdbc_trial_005_lex.sol
Optimal - objective value 6.30088500
      0 r_0                         1                0.929204
      1 r_1                         0                0.929204
      2 r_2                         0                0.920354
      3 r_3                         0                0.920354
      4 r_4                         0                0.911504
      5 r_5                         0                0.911504
      6 r_6                         0                0.911504
      7 r_7                         0                0.911504
      8 r_8                         0                0.902655
      9 r_9                         0                0.893805
     10 r_10                        0                0.893805
     11 r_11                        1                0.893805
     12 r_12                        0                0.884956
     13 r_13                        1                0.884956
     14 r_14                        1                0.876106
     15 r_15                        1                0.876106
     16 b_0                         0                0.929204
     17 b_1                         1                0.929204
     18 b_2                         0                0.920354
     19 b_3                         0                0.920354
     20 b_4                         0                0.911504
     21 b_5                         0                0.911504
     22 b_6                         0                0.911504
     23 b_7                         1                0.911504
     24 b_8                         0                0.902655
     25 b_9                         0                0.893805
     26 b_10                        0                0.893805
     27 b_11                        0                0.893805
     28 b_12                        0                0.884956
     29 b_13                        0                0.884956
     30 b_14                        0                0.876106
     31 b_15                        0                0.876106
